DIMENSION: 6
EDGE_WEIGHT_TYPE: EXPLICIT
EDGE_WEIGHT_FORMAT: FULL_MATRIX
EDGE_WEIGHT_SECTION:
32767 77 10 37 32767 42 
77 32767 54 40 65 32767 
10 54 32767 84 2 60 
37 40 84 32767 2 32767 
32767 65 2 2 32767 23 
42 32767 60 32767 23 32767 
EOF